p wcnf 145 173 174 
1 29 -145 0 
1 32 -78 0 
1 -70 64 0 
1 7 55 0 
1 -128 28 0 
1 5 57 0 
1 -60 -2 0 
1 135 83 0 
1 -101 -30 0 
1 52 28 0 
1 -57 5 0 
1 145 -115 0 
1 142 120 0 
1 83 -106 0 
1 59 -58 0 
1 126 -89 0 
1 121 39 0 
1 46 62 0 
1 29 110 0 
1 45 105 0 
1 -69 103 0 
1 62 55 0 
1 11 -15 0 
1 9 110 0 
1 62 -26 0 
1 15 21 0 
1 -17 135 0 
1 -103 -27 0 
1 -17 -132 0 
1 142 139 0 
1 34 83 0 
1 -46 -40 0 
1 -58 -124 0 
1 -23 -69 0 
1 88 -99 0 
1 82 -67 0 
1 108 -12 0 
1 25 -79 0 
1 -88 76 0 
1 21 -97 0 
1 7 81 0 
1 110 -75 0 
1 -57 -109 0 
1 -57 -143 0 
1 -7 -66 0 
1 140 47 0 
1 13 -141 0 
1 42 80 0 
1 -28 -91 0 
1 108 -46 0 
1 -31 -126 0 
1 -141 -101 0 
1 39 -34 0 
1 122 -107 0 
1 76 139 0 
1 -92 -145 0 
1 89 25 0 
1 -134 -82 0 
1 -111 -109 0 
1 -7 -77 0 
1 -26 14 0 
1 37 97 0 
1 -10 100 0 
1 -37 9 0 
1 -103 41 0 
1 103 -38 0 
1 -16 29 0 
1 92 68 0 
1 -114 -121 0 
1 -2 42 0 
1 6 -9 0 
1 -27 18 0 
1 2 67 0 
1 -62 76 0 
1 36 116 0 
1 99 144 0 
1 54 -81 0 
1 7 -113 0 
1 -36 74 0 
1 -25 -50 0 
1 -132 42 0 
1 62 75 0 
1 105 -1 0 
1 137 -115 0 
1 103 -59 0 
1 -27 134 0 
1 -129 -142 0 
1 45 -141 0 
1 57 9 0 
1 133 -24 0 
1 142 -115 0 
1 66 -31 0 
1 142 95 0 
1 53 -73 0 
1 138 -36 0 
1 116 -93 0 
1 135 -70 0 
1 -37 -110 0 
1 -80 -11 0 
1 41 -31 0 
1 95 8 0 
1 -94 -137 0 
1 80 85 0 
1 42 41 0 
1 -112 68 0 
1 -89 35 0 
1 -113 70 0 
1 108 1 0 
1 -6 145 0 
1 145 12 0 
1 -27 -5 0 
1 -46 -130 0 
1 129 -103 0 
1 39 77 0 
1 13 89 0 
1 -75 -128 0 
1 94 72 0 
1 24 76 0 
1 -92 26 0 
1 -30 72 0 
1 90 78 0 
1 55 -7 0 
1 -121 35 0 
1 61 -45 0 
1 -20 140 0 
1 -48 -33 0 
1 -109 -114 0 
1 131 -13 0 
1 11 55 0 
1 -90 -110 0 
1 116 89 0 
1 87 101 0 
1 64 101 0 
1 -86 45 0 
1 49 65 0 
1 -103 -29 0 
1 -83 -29 0 
1 99 -132 0 
1 112 -72 0 
1 21 120 0 
1 -43 -14 0 
1 -95 -51 0 
1 47 -54 0 
1 -86 -80 0 
1 -27 -37 0 
1 -87 -135 0 
1 -143 139 0 
1 -111 27 0 
1 14 89 0 
1 -26 -130 0 
1 16 61 0 
1 -135 -111 0 
1 -113 45 0 
1 -35 -29 0 
1 15 9 0 
1 -1 -45 0 
1 38 9 0 
1 19 -77 0 
1 -64 -56 0 
1 59 -53 0 
1 49 -39 0 
1 98 -92 0 
1 -4 79 0 
1 -104 -134 0 
1 19 -6 0 
1 89 -129 0 
1 73 96 0 
1 32 -133 0 
1 -77 -11 0 
1 -25 64 0 
1 -108 -120 0 
1 110 -7 0 
1 -67 52 0 
